p tw 102 1233
1 39
1 51
1 61
1 63
1 69
1 78
1 86
1 98
1 2
1 37
1 3
1 9
1 12
1 17
1 19
1 55
1 62
1 64
1 65
1 66
1 67
1 68
1 72
1 73
1 74
1 75
1 76
1 79
1 15
1 92
1 8
1 10
1 11
1 13
1 14
1 16
1 20
1 21
1 71
1 60
1 35
1 34
1 33
1 32
1 31
1 30
1 29
1 27
1 25
1 24
1 23
1 22
1 18
1 4
1 102
1 101
1 100
1 99
1 97
1 96
1 95
1 94
1 93
1 91
1 90
1 89
1 88
1 87
1 85
1 84
1 83
1 82
1 80
1 77
1 5
1 57
1 26
1 58
1 81
1 70
1 59
1 48
1 56
1 7
1 6
2 37
2 3
2 9
2 12
2 17
2 19
2 55
2 62
2 64
2 65
2 66
2 67
2 68
2 72
2 73
2 74
2 75
2 76
2 79
2 15
2 92
2 8
2 10
2 11
2 13
2 14
2 16
2 20
2 21
2 25
2 27
2 29
2 30
2 31
37 3
37 9
37 12
37 17
37 19
37 55
37 62
37 64
37 65
37 66
37 67
37 68
37 72
37 73
37 74
37 75
37 76
37 79
37 92
37 8
37 10
37 11
37 13
37 14
37 16
37 20
37 21
48 81
48 70
48 59
59 81
59 70
70 81
3 9
3 12
3 17
3 19
3 55
3 62
3 64
3 65
3 66
3 67
3 68
3 72
3 73
3 74
3 75
3 76
3 79
3 8
3 10
3 11
3 13
3 14
3 16
3 20
3 21
8 10
9 12
9 17
9 19
9 55
9 62
9 64
9 65
9 66
9 67
9 68
9 72
9 73
9 74
9 75
9 76
9 79
9 10
9 11
9 13
9 14
9 16
9 20
9 21
12 17
12 19
12 55
12 62
12 64
12 65
12 66
12 67
12 68
12 72
12 73
12 74
12 75
12 76
12 79
12 13
12 14
12 16
12 20
12 21
13 14
17 19
17 55
17 62
17 64
17 65
17 66
17 67
17 68
17 72
17 73
17 74
17 75
17 76
17 79
17 20
17 21
19 55
19 62
19 64
19 65
19 66
19 67
19 68
19 72
19 73
19 74
19 75
19 76
19 79
19 20
19 21
19 25
19 27
19 29
19 30
19 31
19 24
20 21
23 31
23 30
23 29
23 27
23 25
23 24
24 31
24 30
24 29
24 27
24 25
25 31
25 30
25 29
25 27
27 31
27 30
27 29
28 36
28 38
28 40
28 41
28 42
28 43
28 44
28 45
28 46
28 47
28 49
28 50
28 52
28 53
28 54
28 56
28 57
28 58
28 60
28 71
28 77
28 80
28 82
28 83
28 84
28 85
28 87
28 88
28 89
28 90
28 91
28 93
28 94
28 95
28 96
28 97
28 99
28 100
28 101
28 102
28 4
28 5
28 29
28 30
28 31
28 32
28 33
28 34
28 35
28 76
28 75
28 74
28 73
28 72
28 68
28 67
28 66
28 65
28 64
28 62
28 79
28 55
29 31
29 30
30 31
32 33
33 34
34 35
36 38
36 40
36 41
36 42
36 43
36 44
36 45
36 46
36 47
36 49
36 50
36 52
36 53
36 54
36 56
36 57
36 58
36 60
36 71
36 77
36 80
36 82
36 83
36 84
36 85
36 87
36 88
36 89
36 90
36 91
36 93
36 94
36 95
36 96
36 97
36 99
36 100
36 101
36 102
36 4
36 5
38 40
38 41
38 42
38 43
38 44
38 45
38 46
38 47
38 49
38 50
38 52
38 53
38 54
38 56
38 57
38 58
38 60
38 71
38 77
38 80
38 82
38 83
38 84
38 85
38 87
38 88
38 89
38 90
38 91
38 93
38 94
38 95
38 96
38 97
38 99
38 100
38 101
38 102
38 4
38 5
39 51
39 61
39 63
39 69
39 78
39 86
39 98
39 55
39 62
39 64
39 65
39 66
39 67
39 68
39 72
39 73
39 74
39 75
39 76
39 79
39 71
39 60
39 4
39 102
39 101
39 100
39 99
39 97
39 96
39 95
39 94
39 93
39 91
39 90
39 89
39 88
39 87
39 85
39 84
39 83
39 82
39 80
39 77
39 5
39 57
39 58
39 56
40 41
40 42
40 43
40 44
40 45
40 46
40 47
40 49
40 50
40 52
40 53
40 54
40 56
40 57
40 58
40 60
40 71
40 77
40 80
40 82
40 83
40 84
40 85
40 87
40 88
40 89
40 90
40 91
40 93
40 94
40 95
40 96
40 97
40 99
40 100
40 101
40 102
40 4
40 5
41 42
41 43
41 44
41 45
41 46
41 47
41 49
41 50
41 52
41 53
41 54
41 56
41 57
41 58
41 60
41 71
41 77
41 80
41 82
41 83
41 84
41 85
41 87
41 88
41 89
41 90
41 91
41 93
41 94
41 95
41 96
41 97
41 99
41 100
41 101
41 102
41 4
41 5
42 43
42 44
42 45
42 46
42 47
42 49
42 50
42 52
42 53
42 54
42 56
42 57
42 58
42 60
42 71
42 77
42 80
42 82
42 83
42 84
42 85
42 87
42 88
42 89
42 90
42 91
42 93
42 94
42 95
42 96
42 97
42 99
42 100
42 101
42 102
42 4
42 5
42 62
43 44
43 45
43 46
43 47
43 49
43 50
43 52
43 53
43 54
43 56
43 57
43 58
43 60
43 71
43 77
43 80
43 82
43 83
43 84
43 85
43 87
43 88
43 89
43 90
43 91
43 93
43 94
43 95
43 96
43 97
43 99
43 100
43 101
43 102
43 4
43 5
43 64
43 62
44 45
44 46
44 47
44 49
44 50
44 52
44 53
44 54
44 56
44 57
44 58
44 60
44 71
44 77
44 80
44 82
44 83
44 84
44 85
44 87
44 88
44 89
44 90
44 91
44 93
44 94
44 95
44 96
44 97
44 99
44 100
44 101
44 102
44 4
44 5
44 65
44 64
44 62
45 46
45 47
45 49
45 50
45 52
45 53
45 54
45 56
45 57
45 58
45 60
45 71
45 77
45 80
45 82
45 83
45 84
45 85
45 87
45 88
45 89
45 90
45 91
45 93
45 94
45 95
45 96
45 97
45 99
45 100
45 101
45 102
45 4
45 5
45 66
45 65
45 64
45 62
46 47
46 49
46 50
46 52
46 53
46 54
46 56
46 57
46 58
46 60
46 71
46 77
46 80
46 82
46 83
46 84
46 85
46 87
46 88
46 89
46 90
46 91
46 93
46 94
46 95
46 96
46 97
46 99
46 100
46 101
46 102
46 4
46 5
46 67
46 66
46 65
46 64
46 62
47 49
47 50
47 52
47 53
47 54
47 56
47 57
47 58
47 60
47 71
47 77
47 80
47 82
47 83
47 84
47 85
47 87
47 88
47 89
47 90
47 91
47 93
47 94
47 95
47 96
47 97
47 99
47 100
47 101
47 102
47 4
47 5
49 50
49 52
49 53
49 54
49 56
49 57
49 58
49 60
49 71
49 77
49 80
49 82
49 83
49 84
49 85
49 87
49 88
49 89
49 90
49 91
49 93
49 94
49 95
49 96
49 97
49 99
49 100
49 101
49 102
49 4
49 5
50 52
50 53
50 54
50 56
50 57
50 58
50 60
50 71
50 77
50 80
50 82
50 83
50 84
50 85
50 87
50 88
50 89
50 90
50 91
50 93
50 94
50 95
50 96
50 97
50 99
50 100
50 101
50 102
50 4
50 5
51 61
51 63
51 69
51 78
51 86
51 98
51 55
51 62
51 64
51 65
51 66
51 67
51 68
51 72
51 73
51 74
51 75
51 76
51 79
51 71
52 53
52 54
52 56
52 57
52 58
52 60
52 71
52 77
52 80
52 82
52 83
52 84
52 85
52 87
52 88
52 89
52 90
52 91
52 93
52 94
52 95
52 96
52 97
52 99
52 100
52 101
52 102
52 4
52 5
53 54
53 56
53 57
53 58
53 60
53 71
53 77
53 80
53 82
53 83
53 84
53 85
53 87
53 88
53 89
53 90
53 91
53 93
53 94
53 95
53 96
53 97
53 99
53 100
53 101
53 102
53 4
53 5
54 56
54 57
54 58
54 60
54 71
54 77
54 80
54 82
54 83
54 84
54 85
54 87
54 88
54 89
54 90
54 91
54 93
54 94
54 95
54 96
54 97
54 99
54 100
54 101
54 102
54 4
54 5
55 79
55 76
55 75
55 74
55 73
55 72
55 68
55 67
55 66
55 65
55 64
55 62
56 4
56 102
56 101
56 100
56 99
56 97
56 94
56 93
56 90
56 80
56 71
57 4
57 102
57 101
57 100
57 99
57 97
57 94
57 93
57 90
57 80
57 71
58 4
58 102
58 101
58 100
58 99
58 97
58 94
58 93
58 90
58 80
58 71
61 63
61 69
61 78
61 86
61 98
61 62
61 64
61 65
61 66
61 67
61 68
61 72
61 73
61 74
61 75
61 76
61 79
62 76
62 75
62 74
62 73
62 72
62 68
62 67
62 66
62 65
62 64
62 79
63 69
63 78
63 86
63 98
63 64
63 65
63 66
63 67
63 68
63 72
63 73
63 74
63 75
63 76
63 79
64 76
64 75
64 74
64 73
64 72
64 68
64 67
64 66
64 65
64 79
65 76
65 75
65 74
65 73
65 72
65 68
65 67
65 66
65 79
66 76
66 75
66 74
66 73
66 72
66 68
66 67
66 79
67 76
67 75
67 74
67 73
67 72
67 68
67 79
68 76
68 75
68 74
68 73
68 72
68 79
69 78
69 86
69 98
69 72
69 73
69 74
69 75
69 76
69 79
71 4
71 102
71 101
71 100
71 99
71 97
71 96
71 95
71 94
71 93
71 91
71 90
71 89
71 88
71 87
71 85
71 84
71 83
71 82
71 80
71 77
71 5
72 76
72 75
72 74
72 73
72 79
73 76
73 75
73 74
73 79
74 76
74 75
74 79
75 76
75 79
76 79
77 82
77 80
78 86
78 98
78 79
80 4
80 102
80 101
80 100
80 99
80 97
80 96
80 95
80 94
80 93
80 91
80 90
80 89
80 88
80 87
80 85
80 84
80 83
80 82
80 5
83 88
83 87
83 85
83 84
84 90
84 89
84 88
84 87
84 85
85 91
85 90
85 89
85 88
85 87
86 98
87 93
87 91
87 90
87 89
87 88
88 95
88 94
88 93
88 91
88 90
88 89
89 97
89 96
89 95
89 94
89 93
89 91
89 90
90 4
90 102
90 101
90 100
90 99
90 97
90 96
90 95
90 94
90 93
90 91
90 5
91 94
91 93
93 4
93 102
93 101
93 100
93 99
93 97
93 96
93 95
93 94
93 5
94 4
94 102
94 101
94 100
94 99
94 97
94 96
94 95
94 5
95 100
95 99
95 97
95 96
96 102
96 101
96 100
96 99
96 97
97 4
97 102
97 101
97 100
97 99
97 5
99 4
99 102
99 101
99 100
99 5
100 4
100 102
100 101
100 5
101 4
101 102
101 5
102 4
102 5
4 5
